Running for instance ./models/r204.txt
Generating routes...
Execution time:  2.699339  seconds
Academic license - for non-commercial use only
Warning: constraint name "Cliente esta na rota x1" has a space
Optimize a model with 26 rows, 10000 columns and 104070 nonzeros
Variable types: 0 continuous, 10000 integer (0 binary)
Coefficient statistics:
  Matrix range     [1e+00, 1e+00]
  Objective range  [2e+01, 5e+02]
  Bounds range     [1e+00, 1e+00]
  RHS range        [1e+00, 2e+01]
Found heuristic solution: objective 863.7656542
Presolve removed 1 rows and 738 columns
Presolve time: 0.10s
Presolved: 25 rows, 9262 columns, 88062 nonzeros
Variable types: 0 continuous, 9262 integer (9262 binary)

Root relaxation: objective 4.953849e+02, 110 iterations, 0.02 seconds

    Nodes    |    Current Node    |     Objective Bounds      |     Work
 Expl Unexpl |  Obj  Depth IntInf | Incumbent    BestBd   Gap | It/Node Time

     0     0  495.38495    0   25  863.76565  495.38495  42.6%     -    0s
H    0     0                     659.5698489  495.38495  24.9%     -    0s
     0     0  495.38495    0   25  659.56985  495.38495  24.9%     -    0s
H    0     0                     528.9434427  495.38495  6.34%     -    0s
     0     0  509.62434    0   25  528.94344  509.62434  3.65%     -    0s
     0     0  509.63667    0   25  528.94344  509.63667  3.65%     -    0s
     0     0  509.63667    0   25  528.94344  509.63667  3.65%     -    0s

Explored 1 nodes (209 simplex iterations) in 0.50 seconds
Thread count was 8 (of 8 available processors)

Solution count 3: 528.943 659.57 863.766 

Optimal solution found (tolerance 1.00e-04)
Best objective 5.289434427390e+02, best bound 5.289434427390e+02, gap 0.0000%

Routes:
11 20 9
15 23 4
1 10 19 18 8 6 7 5 13 14 17 16 2 21 22 25 24 3 12

Distance: 528.943442739
Execution time:  4.113088  seconds
